row=7;
Board=[|-1,-1,-1,4,-1,9,-1,0,2,-1|-1,-1,2,3,8,4,-1,9,1,-1|-1,-1,8,4,0,7,1,-1,2,6|0,-1,2,1,-1,3,-1,-1,4,7|8,-1,-1,4,7,9,2,5,6,0|4,-1,-1,-1,-1,6,3,8,-1,-1|9,-1,-1,-1,-1,2,5,0,6,-1|];
bottom=[31,27,34,28,35,40,30,34,22,34]